networks/zoo_36_62/zoo_36_62-lower.sol
<?xml version = "1.0" encoding="UTF-8" standalone="yes"?>
<CPLEXSolution version="1.2">
 <header
   problemName="networks/zoo_36_62/zoo_36_62-lower.lp"
   solutionName="incumbent"
   solutionIndex="-1"
   objectiveValue="15"
   solutionTypeValue="3"
   solutionTypeString="primal"
   solutionStatusValue="101"
   solutionStatusString="integer optimal solution"
   solutionMethodString="mip"
   primalFeasible="1"
   dualFeasible="1"
   MIPNodes="0"
   MIPIterations="0"
   writeLevel="3"/>
 <quality
   epInt="1.0000000000000001e-05"
   epRHS="9.9999999999999995e-07"
   maxIntInfeas="0"
   maxPrimalInfeas="0"
   maxX="1"
   maxSlack="1"/>
 <variables>
  <variable name="Y(1,11)" index="9" value="1"/>
  <variable name="Y(2,12)" index="42" value="1"/>
  <variable name="Y(6,9)" index="167" value="1"/>
  <variable name="Y(7,10)" index="200" value="1"/>
  <variable name="Y(10,16)" index="302" value="1"/>
  <variable name="Y(11,18)" index="336" value="1"/>
  <variable name="Y(12,5)" index="355" value="1"/>
  <variable name="Y(43,1)" index="1344" value="1"/>
  <variable name="Y(44,2)" index="1377" value="1"/>
  <variable name="Y(46,6)" index="1444" value="1"/>
  <variable name="Y(47,7)" index="1477" value="1"/>
  <variable name="Y(48,8)" index="1510" value="1"/>
  <variable name="Y(53,13)" index="1675" value="1"/>
  <variable name="Y(54,14)" index="1708" value="1"/>
  <variable name="Y(55,15)" index="1741" value="1"/>
  <variable name="X(1,12,1)" index="1984" value="1"/>
  <variable name="X(1,19,43)" index="2088" value="1"/>
  <variable name="X(2,12,3)" index="2110" value="1"/>
  <variable name="X(2,20,44)" index="2213" value="1"/>
  <variable name="X(4,12,5)" index="2236" value="1"/>
  <variable name="X(5,12,6)" index="2299" value="1"/>
  <variable name="X(5,23,12)" index="2367" value="1"/>
  <variable name="X(6,12,12)" index="2429" value="1"/>
  <variable name="X(6,24,46)" index="2525" value="1"/>
  <variable name="X(7,12,19)" index="2560" value="1"/>
  <variable name="X(7,25,47)" index="2650" value="1"/>
  <variable name="X(8,12,20)" index="2685" value="1"/>
  <variable name="X(8,26,48)" index="2775" value="1"/>
  <variable name="X(9,16,22)" index="2811" value="1"/>
  <variable name="X(9,18,26)" index="2877" value="1"/>
  <variable name="X(9,27,6)" index="2919" value="1"/>
  <variable name="X(10,11,27)" index="3002" value="1"/>
  <variable name="X(10,28,7)" index="3044" value="1"/>
  <variable name="X(11,10,7)" index="3106" value="1"/>
  <variable name="X(11,12,27)" index="3188" value="1"/>
  <variable name="X(11,16,29)" index="3252" value="1"/>
  <variable name="X(11,29,1)" index="3286" value="1"/>
  <variable name="X(12,1,43)" index="3390" value="1"/>
  <variable name="X(12,2,44)" index="3453" value="1"/>
  <variable name="X(12,5,12)" index="3483" value="1"/>
  <variable name="X(12,6,46)" index="3579" value="1"/>
  <variable name="X(12,7,47)" index="3642" value="1"/>
  <variable name="X(12,8,48)" index="3705" value="1"/>
  <variable name="X(12,11,1)" index="3720" value="1"/>
  <variable name="X(12,16,6)" index="3787" value="1"/>
  <variable name="X(12,30,2)" index="3845" value="1"/>
  <variable name="X(13,16,39)" index="3944" value="1"/>
  <variable name="X(13,31,53)" index="4020" value="1"/>
  <variable name="X(14,16,41)" index="4070" value="1"/>
  <variable name="X(14,32,54)" index="4145" value="1"/>
  <variable name="X(15,16,42)" index="4195" value="1"/>
  <variable name="X(15,33,55)" index="4270" value="1"/>
  <variable name="X(16,9,6)" index="4283" value="1"/>
  <variable name="X(16,11,23)" index="4362" value="1"/>
  <variable name="X(16,12,22)" index="4423" value="1"/>
  <variable name="X(16,13,53)" index="4516" value="1"/>
  <variable name="X(16,14,54)" index="4579" value="1"/>
  <variable name="X(16,15,55)" index="4642" value="1"/>
  <variable name="X(16,18,11)" index="4660" value="1"/>
  <variable name="X(16,34,10)" index="4721" value="1"/>
  <variable name="X(17,16,57)" index="4830" value="1"/>
  <variable name="X(18,16,60)" index="4895" value="1"/>
  <variable name="X(18,36,11)" index="4908" value="1"/>
 </variables>
</CPLEXSolution>
